COLUMNS

passenger_count
pickup_ID
dropoff_ID
request_time_sec
pickup_district
dropoff_district
LDuals
IDuals
vehicle_ID
pick_position
drop_position

REQUESTS_INFO
2      306       415       30316     299       100       185       185       4         1         2         
1      253       767       30310     206       290       132       132       27        1         3         
1      304       215       30321     299       178       158       158       47        1         3         
1      304       547       30313     299       52        166       166       48        1         2         
3      163       678       30323     178       290       152       152       146       1         2         
1      881       122       30320     290       54        195       195       166       1         3         
1      374       304       30303     119       299       162.5     162.5     168       1         2         
3      903       531       30304     290       189       228       228       181       1         2         
1      773       371       30263     290       52        220       220       188       1         2         
1      237       748       30301     87        290       159       159       195       1         3         
1      961       835       30275     291       290       250       250       240       1         2         
1      345       421       30314     299       168       177       177       256       1         3         
4      304       348       30292     299       299       221       221       285       1         2         
2      946       79        30325     290       98        219       219       353       1         3         
2      368       416       30263     299       100       219       219       370       1         2         
2      887       772       30317     290       290       161       161       381       1         2         
1      345       350       30276     299       127       251       251       401       1         2         
4      847       411       30271     291       52        222       222       455       1         2         
3      887       772       30317     290       290       166       166       477       1         2         
1      852       670       30312     291       280       162       162       488       1         3         
1      914       770       30328     291       290       164       164       488       2         4         
1      332       626       30327     87        189       170       170       536       1         2         
1      772       535       30326     290       189       120       120       538       1         3         
2      768       648       30315     290       189       150       150       541       1         3         
1      881       670       30262     290       280       253       253       615       1         2         
1      937       20        30305     291       98        188       188       644       1         4         
3      757       760       30260     131       291       182       182       682       1         2         
1      926       963       30271     290       50        287       287       692       1         2         
3      436       399       30319     100       168       135       135       706       1         2         
1      849       718       30250     291       189       305       305       718       1         2         
1      838       622       30254     290       280       241       241       729       1         3         
2      311       436       30327     87        100       147       147       748       1         2         
3      970       545       30297     290       52        225       225       787       1         2         
1      488       629       30319     199       189       123       123       791       1         3         
3      903       531       30304     290       189       228       228       793       1         3         
1      819       768       30301     999       290       192       192       795       1         2         
1      1005      526       30286     50        52        235       235       824       1         3         
2      1091      675       30307     291       189       178       178       857       1         3         
1      43        48        30324     9         98        106       106       862       1         2         
3      415       604       30315     100       189       112       112       890       1         2         
3      347       231       30257     299       266       272       272       914       1         2         
2      826       620       30321     291       131       147       147       922       1         3         
1      1000      604       30315     291       189       173       173       962       1         3         
2      812       904       30273     290       290       174       174       1018      1         3         
1      756       409       30326     131       52        128       128       1022      1         3         
2      883       840       30284     290       290       237       237       1031      1         2         
1      860       991       30326     290       290       185       185       1032      1         3         
1      989       748       30321     50        290       207       207       1034      1         2         
1      724       699       30323     290       290       125.5     125.5     1046      1         3         
1      992       727       30292     290       290       196       196       1088      1         4         
1      1046      626       30255     291       189       192       192       1118      1         2         
1      1098      1073      30312     84        50        151       151       1139      1         2         
2      1128      983       30251     291       291       165       165       1224      1         3         
1      740       11        30322     50        999       73        73        1228      1         4         
2      984       377       30287     291       168       263       263       1234      1         2         
2      1066      982       30320     291       291       150       150       1377      1         2         
1      950       696       30301     290       189       171       171       1403      1         3         
1      703       512       30278     290       199       137       137       1449      1         2         
1      510       488       30301     199       199       122       122       1488      1         2         
4      1005      981       30279     50        291       242       242       1529      1         2         
3      980       849       30254     291       291       265       265       1719      1         2         
1      179       193       30322     178       266       159       159       1733      1         2         
1      850       600       30316     291       280       151       151       1747      1         3         
1      663       34        30307     131       98        114       114       1763      1         3         
1      840       1201      30263     290       84        222       222       1767      1         2         
1      746       575       30302     290       189       172       172       1796      1         3         
3      333       748       30306     119       290       204       204       1798      1         2         
1      778       763       30292     131       50        174       174       1813      1         2         
1      550       673       30325     189       189       99        99        1818      1         4         
3      306       415       30316     299       100       185       185       1827      1         3         
1      1000      982       30327     291       291       161       161       1847      1         2         
3      327       416       30318     299       100       182       182       1860      1         3         
3      415       604       30315     100       189       112       112       1891      1         2         
1      232       348       30311     266       299       113       113       1911      1         2         
3      1002      1227      30312     291       192       187       187       1922      1         4         
1      981       1225      30271     291       192       223       223       1922      2         3         
1      927       925       30281     290       290       257       257       1959      1         2         
2      252       410       30308     206       52        160       160       1968      1         3         
1      252       333       30327     206       119       149       149       1997      1         2         
1      858       969       30330     290       290       0         0         0         0         0         
1      43        651       30330     9         189       0         0         0         0         0         
1      728       690       30330     290       131       0         0         0         0         0         
1      1023      1045      30330     291       291       0         0         0         0         0         
1      1022      717       30330     291       189       0         0         0         0         0         
1      395       628       30330     100       189       0         0         0         0         0         
1      557       335       30330     189       119       0         0         0         0         0         
3      794       698       30331     290       189       0         0         0         0         0         
3      794       698       30331     290       189       0         0         0         0         0         
1      991       670       30331     290       280       0         0         0         0         0         
1      1024      1207      30332     291       192       0         0         0         0         0         
1      378       358       30332     168       168       0         0         0         0         0         
1      712       672       30332     131       189       0         0         0         0         0         
1      476       344       30332     52        299       0         0         0         0         0         
1      499       233       30333     52        206       0         0         0         0         0         
2      721       915       30333     290       291       0         0         0         0         0         
1      330       532       30333     127       199       0         0         0         0         0         
2      887       795       30333     290       290       0         0         0         0         0         
1      273       397       30333     206       168       0         0         0         0         0         
1      269       350       30333     127       127       0         0         0         0         0         
1      818       484       30334     290       189       0         0         0         0         0         
1      199       650       30334     178       189       0         0         0         0         0         
1      68        35        30334     287       98        0         0         0         0         0         
3      791       392       30334     290       52        0         0         0         0         0         
3      791       392       30334     290       52        0         0         0         0         0         
3      884       812       30335     290       290       0         0         0         0         0         
3      884       812       30335     290       290       0         0         0         0         0         
1      526       669       30335     52        280       0         0         0         0         0         
1      631       642       30335     189       131       0         0         0         0         0         
1      781       574       30335     291       189       0         0         0         0         0         
1      81        371       30335     98        52        0         0         0         0         0         
1      532       650       30335     199       189       0         0         0         0         0         
1      888       439       30335     290       189       0         0         0         0         0         
1      583       948       30336     189       290       0         0         0         0         0         
1      443       377       30336     168       168       0         0         0         0         0         
1      947       698       30336     290       189       0         0         0         0         0         
3      317       529       30336     277       189       0         0         0         0         0         
1      801       556       30336     291       199       0         0         0         0         0         
1      701       781       30337     290       291       0         0         0         0         0         
1      694       527       30337     189       52        0         0         0         0         0         
2      287       325       30337     299       299       0         0         0         0         0         
1      441       531       30337     168       189       0         0         0         0         0         
1      726       290       30337     290       127       0         0         0         0         0         
1      835       604       30338     290       189       0         0         0         0         0         
4      630       558       30338     189       189       0         0         0         0         0         
1      558       291       30338     189       87        0         0         0         0         0         
3      1265      1010      30339     192       290       0         0         0         0         0         
2      984       1207      30339     291       192       0         0         0         0         0         
3      984       1207      30339     291       192       0         0         0         0         0         
2      1265      1010      30339     192       290       0         0         0         0         0         
2      171       578       30339     286       189       0         0         0         0         0         
1      479       290       30339     52        127       0         0         0         0         0         
4      715       507       30339     131       189       0         0         0         0         0         
2      760       984       30339     291       291       0         0         0         0         0         
2      507       416       30340     189       100       0         0         0         0         0         
1      915       719       30340     291       189       0         0         0         0         0         
1      788       748       30340     290       290       0         0         0         0         0         
1      745       840       30340     290       290       0         0         0         0         0         
3      982       1026      30340     291       291       0         0         0         0         0         
3      649       534       30340     189       199       0         0         0         0         0         
3      649       534       30340     189       199       0         0         0         0         0         
1      410       499       30341     52        52        0         0         0         0         0         
1      64        629       30341     98        189       0         0         0         0         0         
1      883       789       30341     290       290       0         0         0         0         0         
1      267       189       30342     266       286       0         0         0         0         0         
1      133       580       30342     9         189       0         0         0         0         0         
1      484       668       30342     189       280       0         0         0         0         0         
4      466       605       30342     199       189       0         0         0         0         0         
1      458       134       30343     52        9         0         0         0         0         0         
1      512       570       30343     199       52        0         0         0         0         0         
1      772       629       30343     290       189       0         0         0         0         0         
1      609       96        30343     189       9         0         0         0         0         0         
1      904       791       30343     290       290       0         0         0         0         0         
1      695       973       30343     189       84        0         0         0         0         0         
3      442       692       30344     168       280       0         0         0         0         0         
2      442       692       30344     168       280       0         0         0         0         0         
1      630       695       30344     189       189       0         0         0         0         0         
1      1026      860       30344     291       290       0         0         0         0         0         
3      1355      1267      30344     129       129       0         0         0         0         0         
1      698       604       30345     189       189       0         0         0         0         0         
1      354       398       30345     119       168       0         0         0         0         0         
1      504       692       30345     52        280       0         0         0         0         0         
1      256       312       30345     87        87        0         0         0         0         0         
1      748       693       30345     290       280       0         0         0         0         0         
1      1115      1048      30345     84        291       0         0         0         0         0         
1      929       687       30345     290       131       0         0         0         0         0         
2      914       377       30346     291       168       0         0         0         0         0         
1      887       1144      30346     290       84        0         0         0         0         0         
1      527       571       30346     52        52        0         0         0         0         0         
1      723       782       30346     290       291       0         0         0         0         0         
3      1031      995       30347     50        84        0         0         0         0         0         
2      1031      995       30347     50        84        0         0         0         0         0         
4      248       116       30348     266       9         0         0         0         0         0         
1      641       239       30348     131       87        0         0         0         0         0         
1      909       651       30348     290       189       0         0         0         0         0         
1      604       697       30349     189       189       0         0         0         0         0         
2      913       677       30349     291       189       0         0         0         0         0         
1      464       376       30349     168       168       0         0         0         0         0         
1      739       461       30349     189       189       0         0         0         0         0         
2      834       852       30350     290       291       0         0         0         0         0         
1      896       457       30350     291       52        0         0         0         0         0         
1      694       1087      30350     189       291       0         0         0         0         0         
1      791       813       30350     290       290       0         0         0         0         0         
1      653       791       30350     189       290       0         0         0         0         0         
2      557       488       30350     189       199       0         0         0         0         0         
3      914       669       30350     291       280       0         0         0         0         0         
1      312       325       30350     87        299       0         0         0         0         0         
1      1157      1189      30350     129       192       0         0         0         0         0         
1      873       801       30350     291       291       0         0         0         0         0         
3      834       852       30350     290       291       0         0         0         0         0         
3      66        127       30350     98        178       0         0         0         0         0         
3      66        127       30350     98        178       0         0         0         0         0         
1      155       390       30351     286       52        0         0         0         0         0         
1      229       394       30351     266       100       0         0         0         0         0         
1      557       313       30351     189       87        0         0         0         0         0         
1      152       625       30351     9         189       0         0         0         0         0         
2      351       600       30351     52        280       0         0         0         0         0         
1      662       353       30351     131       119       0         0         0         0         0         
1      358       485       30351     168       189       0         0         0         0         0         
1      557       510       30352     189       199       0         0         0         0         0         
1      397       508       30352     168       199       0         0         0         0         0         
1      726       928       30352     290       290       0         0         0         0         0         
2      814       371       30353     290       52        0         0         0         0         0         
3      814       371       30353     290       52        0         0         0         0         0         
1      557       417       30353     189       100       0         0         0         0         0         
1      506       463       30353     189       168       0         0         0         0         0         
1      371       49        30353     52        98        0         0         0         0         0         
1      338       627       30353     277       189       0         0         0         0         0         
1      464       416       30353     168       100       0         0         0         0         0         
1      233       556       30353     206       199       0         0         0         0         0         
1      533       507       30353     199       189       0         0         0         0         0         
1      378       727       30353     168       290       0         0         0         0         0         
1      1068      980       30353     291       291       0         0         0         0         0         
1      61        484       30353     98        189       0         0         0         0         0         
1      464       605       30353     168       189       0         0         0         0         0         
1      466       694       30353     199       189       0         0         0         0         0         
1      837       554       30354     290       189       0         0         0         0         0         
1      675       671       30354     189       280       0         0         0         0         0         
1      1310      1266      30354     84        192       0         0         0         0         0         
2      800       438       30354     131       100       0         0         0         0         0         
1      873       904       30354     291       290       0         0         0         0         0         
1      767       605       30354     290       189       0         0         0         0         0         
1      1005      990       30354     50        290       0         0         0         0         0         
1      721       760       30355     290       291       0         0         0         0         0         
1      366       604       30355     299       189       0         0         0         0         0         
1      1044      781       30355     291       291       0         0         0         0         0         
2      597       727       30355     131       290       0         0         0         0         0         
3      694       602       30355     189       189       0         0         0         0         0         
3      597       727       30355     131       290       0         0         0         0         0         
1      701       464       30355     290       168       0         0         0         0         0         
1      603       571       30355     189       52        0         0         0         0         0         
1      601       527       30355     189       52        0         0         0         0         0         
1      559       599       30355     189       280       0         0         0         0         0         
2      1172      1227      30356     129       192       0         0         0         0         0         
3      1172      1227      30356     129       192       0         0         0         0         0         
2      594       523       30356     131       52        0         0         0         0         0         
3      939       719       30356     291       189       0         0         0         0         0         
1      722       946       30356     290       290       0         0         0         0         0         
1      837       959       30356     290       291       0         0         0         0         0         
1      537       674       30357     189       189       0         0         0         0         0         
1      438       398       30357     100       168       0         0         0         0         0         
1      305       208       30357     299       286       0         0         0         0         0         
1      905       116       30357     290       9         0         0         0         0         0         
1      256       48        30357     87        98        0         0         0         0         0         
1      373       526       30357     119       52        0         0         0         0         0         
1      597       626       30357     131       189       0         0         0         0         0         
3      388       436       30358     299       100       0         0         0         0         0         
2      873       771       30358     291       290       0         0         0         0         0         
1      969       1011      30358     290       84        0         0         0         0         0         
2      388       436       30358     299       100       0         0         0         0         0         
3      893       906       30358     291       290       0         0         0         0         0         
2      893       906       30358     291       290       0         0         0         0         0         
1      304       348       30359     299       299       0         0         0         0         0         
2      881       950       30359     290       290       0         0         0         0         0         
1      556       568       30359     199       52        0         0         0         0         0         
1      726       579       30359     290       189       0         0         0         0         0         
1      828       526       30359     291       52        0         0         0         0         0         
3      970       959       30359     290       291       0         0         0         0         0         
3      970       959       30359     290       291       0         0         0         0         0         
